projected/problems_b25_r0_d7_m100_s666/_DIMACS/b25_d7_r0_s666_069.cnf
p cnf 251 426 25
c p show 1 2 3 4 5 6 7 8 9 10 11 12 13 14 15 16 17 18 19 20 21 22 23 24 25
-177 22 0
-177 -6 0
-178 5 1 0
-179 178 177 0
-180 10 -25 0
-181 -23 0
-181 -17 0
-182 181 0
-182 180 0
-183 23 17 0
-184 -10 0
-184 25 0
-185 184 0
-185 183 0
-186 185 182 0
-187 186 0
-187 179 0
-188 2 18 0
-189 4 0
-189 13 0
-190 189 188 0
-191 2 0
-191 -22 0
-192 -13 -16 0
-193 192 0
-193 191 0
-194 193 0
-194 190 0
-195 194 0
-195 187 0
-196 -2 0
-196 -18 0
-197 -4 -13 0
-198 197 0
-198 196 0
-199 -2 22 0
-200 13 0
-200 16 0
-201 200 199 0
-202 201 198 0
-203 -22 6 0
-204 -5 0
-204 -1 0
-205 204 0
-205 203 0
-206 183 184 0
-207 180 181 0
-208 207 0
-208 206 0
-209 208 205 0
-210 209 0
-210 202 0
-211 210 195 0
-212 6 0
-212 1 0
-213 -1 0
-213 -6 0
-214 213 212 0
-215 -21 10 0
-216 215 214 0
-217 -1 25 0
-218 -3 0
-218 -23 0
-219 218 0
-219 217 0
-220 219 0
-220 216 0
-221 20 0
-221 -15 0
-222 -3 0
-222 -13 0
-223 222 221 0
-224 -6 1 0
-225 -24 0
-225 -21 0
-226 225 224 0
-227 226 223 0
-228 227 220 0
-229 -20 15 0
-230 3 13 0
-231 230 0
-231 229 0
-232 6 0
-232 -1 0
-233 24 21 0
-234 233 0
-234 232 0
-235 234 0
-235 231 0
-236 -6 -1 0
-237 1 6 0
-238 237 0
-238 236 0
-239 21 0
-239 -10 0
-240 239 0
-240 238 0
-241 1 0
-241 -25 0
-242 3 23 0
-243 242 241 0
-244 243 240 0
-245 244 235 0
-246 245 0
-246 228 0
-247 246 211 0
-248 235 0
-248 244 0
-250 220 0
-250 227 0
-251 250 248 0
-26 202 209 0
-27 187 194 0
-28 27 0
-28 26 0
-29 28 251 0
-30 29 0
-30 247 0
-31 23 0
-31 -25 0
-32 12 0
-32 20 0
-249 32 31 0
-78 -23 22 0
-33 14 -14 0
-34 33 78 0
-35 34 0
-35 249 0
-36 -10 -11 0
-37 21 0
-37 -1 0
-38 37 0
-38 36 0
-39 -22 0
-39 17 0
-40 1 0
-40 9 0
-41 -9 0
-41 -1 0
-42 41 40 0
-43 42 0
-43 39 0
-44 43 38 0
-45 44 0
-45 35 0
-46 -1 0
-46 22 0
-47 -19 -9 0
-48 47 46 0
-49 -14 -1 0
-50 -25 14 0
-51 50 0
-51 49 0
-52 51 0
-52 48 0
-53 14 0
-53 1 0
-54 25 0
-54 -14 0
-55 54 53 0
-56 1 -22 0
-57 19 0
-57 9 0
-58 57 0
-58 56 0
-59 58 0
-59 55 0
-60 59 52 0
-61 -22 0
-61 25 0
-62 199 61 0
-63 -2 0
-63 -8 0
-64 11 0
-64 6 0
-65 64 0
-65 63 0
-66 65 62 0
-67 66 60 0
-68 67 0
-68 45 0
-69 68 0
-69 30 0
-70 11 0
-70 16 0
-71 -18 0
-71 -23 0
-72 23 0
-72 18 0
-73 72 71 0
-74 73 0
-74 70 0
-75 -2 0
-75 25 0
-76 23 0
-76 3 0
-77 76 218 0
-79 77 0
-79 75 0
-80 79 74 0
-81 15 0
-81 -17 0
-82 17 0
-82 -15 0
-83 82 81 0
-84 -6 22 0
-85 84 83 0
-86 11 -23 0
-87 -19 0
-87 6 0
-88 87 0
-88 86 0
-89 88 85 0
-90 89 0
-90 80 0
-91 10 13 0
-92 -22 -20 0
-93 92 0
-93 91 0
-94 20 -25 0
-95 18 4 0
-96 95 0
-96 94 0
-97 96 93 0
-98 -20 0
-98 25 0
-99 -18 0
-99 -4 0
-100 99 98 0
-101 -10 0
-101 -13 0
-102 22 0
-102 20 0
-103 102 101 0
-104 103 100 0
-105 104 0
-105 97 0
-106 9 -1 0
-107 9 -2 0
-108 107 0
-108 106 0
-109 12 0
-109 13 0
-110 2 -15 0
-111 110 0
-111 109 0
-112 -2 0
-112 15 0
-113 -12 -13 0
-114 113 0
-114 112 0
-115 114 111 0
-116 115 108 0
-117 116 105 0
-118 -9 0
-118 1 0
-119 -9 0
-119 2 0
-120 119 118 0
-121 112 113 0
-122 109 110 0
-123 122 0
-123 121 0
-124 123 0
-124 120 0
-125 100 0
-125 103 0
-126 93 0
-126 96 0
-127 126 125 0
-128 127 124 0
-129 128 0
-129 117 0
-130 129 90 0
-131 25 -18 0
-132 13 6 0
-133 -6 -13 0
-134 133 0
-134 132 0
-135 134 0
-135 131 0
-136 -13 0
-136 -6 0
-137 6 0
-137 13 0
-138 137 136 0
-139 -25 0
-139 18 0
-140 139 0
-140 138 0
-141 140 135 0
-142 -22 0
-142 -21 0
-143 -13 0
-143 2 0
-144 143 142 0
-145 144 0
-145 141 0
-146 -11 0
-146 17 0
-147 -15 25 0
-148 147 0
-148 146 0
-149 -4 -6 0
-150 -4 -7 0
-151 150 0
-151 149 0
-152 151 148 0
-153 152 0
-153 145 0
-154 -15 0
-154 21 0
-155 -21 0
-155 15 0
-156 155 154 0
-157 4 0
-157 19 0
-158 157 156 0
-159 -4 -15 0
-160 -16 0
-160 25 0
-161 -25 0
-161 16 0
-162 161 160 0
-163 162 0
-163 159 0
-164 163 0
-164 158 0
-165 25 18 0
-166 -18 -25 0
-167 166 0
-167 165 0
-168 -5 23 0
-169 168 167 0
-170 -3 -21 0
-171 -8 -2 0
-172 171 170 0
-173 172 0
-173 169 0
-174 173 164 0
-175 174 0
-175 153 0
-176 175 0
-176 130 0
176 69 0
-221 -229 0
-229 -221 0
-222 -230 0
-230 -222 0
-231 -223 0
-223 -231 0
-232 -224 0
-225 -233 0
-233 -225 0
-234 -226 0
-226 -234 0
-227 -235 0
-235 -227 0
-238 -214 0
-215 -239 0
-239 -215 0
-240 -216 0
-217 -241 0
-241 -217 0
-218 -242 0
-242 -218 0
-243 -219 0
-244 -220 0
-220 -244 0
-246 -251 0
-251 -246 0
-188 -196 0
-196 -188 0
-197 -189 0
-198 -190 0
-199 -191 0
-192 -200 0
-200 -192 0
-201 -193 0
-202 -194 0
-194 -202 0
-177 -203 0
-204 -178 0
-178 -204 0
-179 -205 0
-205 -179 0
-181 -183 0
-184 -180 0
-208 -186 0
-209 -187 0
-28 -211 0
-211 -28 0
-49 -53 0
-54 -50 0
-50 -54 0
-51 -55 0
-46 -56 0
-57 -47 0
-47 -57 0
-48 -58 0
-58 -48 0
-118 -106 0
-106 -118 0
-119 -107 0
-107 -119 0
-108 -120 0
-120 -108 0
-112 -110 0
-110 -112 0
-109 -113 0
-113 -109 0
-123 -115 0
-124 -116 0
-98 -94 0
-94 -98 0
-99 -95 0
-95 -99 0
-96 -100 0
-100 -96 0
-101 -91 0
-91 -101 0
-92 -102 0
-93 -103 0
-105 -127 0
-134 -138 0
-139 -131 0
