projected/problems_b25_r0_d7_m100_s666/b25_d7_r0_s666_069.smt2
(set-logic QF_UF)
(declare-fun A0 () Bool)
(declare-fun A1 () Bool)
(declare-fun A2 () Bool)
(declare-fun A3 () Bool)
(declare-fun A4 () Bool)
(declare-fun A5 () Bool)
(declare-fun A6 () Bool)
(declare-fun A7 () Bool)
(declare-fun A8 () Bool)
(declare-fun A9 () Bool)
(declare-fun A10 () Bool)
(declare-fun A11 () Bool)
(declare-fun A12 () Bool)
(declare-fun A13 () Bool)
(declare-fun A14 () Bool)
(declare-fun A15 () Bool)
(declare-fun A16 () Bool)
(declare-fun A17 () Bool)
(declare-fun A18 () Bool)
(declare-fun A19 () Bool)
(declare-fun A20 () Bool)
(declare-fun A21 () Bool)
(declare-fun A22 () Bool)
(declare-fun A23 () Bool)
(declare-fun A24 () Bool)
(assert (let ((.def_0 (not A14))) (let ((.def_1 (and A19 .def_0))) (let ((.def_2 (not .def_1))) (let ((.def_3 (not A12))) (let ((.def_4 (not A2))) (let ((.def_5 (and .def_4 .def_3))) (let ((.def_6 (not .def_5))) (let ((.def_7 (and .def_6 .def_2))) (let ((.def_8 (not .def_7))) (let ((.def_9 (not A0))) (let ((.def_10 (and A5 .def_9))) (let ((.def_11 (not A20))) (let ((.def_12 (not A23))) (let ((.def_13 (and .def_12 .def_11))) (let ((.def_14 (not .def_13))) (let ((.def_15 (and .def_14 .def_10))) (let ((.def_16 (not .def_15))) (let ((.def_17 (or .def_16 .def_8))) (let ((.def_18 (not .def_17))) (let ((.def_19 (= .def_9 A5))) (let ((.def_20 (or .def_11 A9))) (let ((.def_21 (not .def_20))) (let ((.def_22 (and .def_21 .def_19))) (let ((.def_23 (or .def_9 A24))) (let ((.def_24 (not .def_23))) (let ((.def_25 (not A22))) (let ((.def_26 (and .def_4 .def_25))) (let ((.def_27 (not .def_26))) (let ((.def_28 (or .def_27 .def_24))) (let ((.def_29 (or .def_28 .def_22))) (let ((.def_30 (not .def_29))) (let ((.def_31 (= .def_30 .def_18))) (let ((.def_32 (not .def_31))) (let ((.def_33 (or A1 A17))) (let ((.def_34 (not .def_33))) (let ((.def_35 (not A3))) (let ((.def_36 (or .def_35 .def_3))) (let ((.def_37 (and .def_36 .def_34))) (let ((.def_38 (not A1))) (let ((.def_39 (or .def_38 A21))) (let ((.def_40 (not A15))) (let ((.def_41 (or .def_3 .def_40))) (let ((.def_42 (not .def_41))) (let ((.def_43 (or .def_42 .def_39))) (let ((.def_44 (or .def_43 .def_37))) (let ((.def_45 (not .def_44))) (let ((.def_46 (not A5))) (let ((.def_47 (and A21 .def_46))) (let ((.def_48 (not A4))) (let ((.def_49 (and .def_48 .def_9))) (let ((.def_50 (not .def_49))) (let ((.def_51 (or .def_50 .def_47))) (let ((.def_52 (not .def_51))) (let ((.def_53 (not A16))) (let ((.def_54 (and .def_25 .def_53))) (let ((.def_55 (not A9))) (let ((.def_56 (and .def_55 A24))) (let ((.def_57 (= .def_56 .def_54))) (let ((.def_58 (or .def_57 .def_52))) (let ((.def_59 (= .def_58 .def_45))) (let ((.def_60 (not .def_59))) (let ((.def_61 (= .def_60 .def_32))) (let ((.def_62 (not .def_61))) (let ((.def_63 (not A24))) (let ((.def_64 (and A22 .def_63))) (let ((.def_65 (and A11 A19))) (let ((.def_66 (or .def_65 .def_64))) (let ((.def_67 (not A21))) (let ((.def_68 (and A22 .def_67))) (let ((.def_69 (not .def_68))) (let ((.def_70 (not A13))) (let ((.def_71 (and .def_70 A13))) (let ((.def_72 (not .def_71))) (let ((.def_73 (or .def_72 .def_69))) (let ((.def_74 (and .def_73 .def_66))) (let ((.def_75 (not A10))) (let ((.def_76 (or .def_55 .def_75))) (let ((.def_77 (and A20 .def_9))) (let ((.def_78 (and .def_77 .def_76))) (let ((.def_79 (not .def_78))) (let ((.def_80 (and .def_67 A16))) (let ((.def_81 (not .def_80))) (let ((.def_82 (not A8))) (let ((.def_83 (= .def_82 A0))) (let ((.def_84 (or .def_83 .def_81))) (let ((.def_85 (and .def_84 .def_79))) (let ((.def_86 (not .def_85))) (let ((.def_87 (and .def_86 .def_74))) (let ((.def_88 (not .def_87))) (let ((.def_89 (or .def_70 .def_9))) (let ((.def_90 (and A24 .def_70))) (let ((.def_91 (not .def_90))) (let ((.def_92 (and .def_91 .def_89))) (let ((.def_93 (and .def_9 A21))) (let ((.def_94 (and A18 A8))) (let ((.def_95 (not .def_94))) (let ((.def_96 (or .def_95 .def_93))) (let ((.def_97 (not .def_96))) (let ((.def_98 (= .def_97 .def_92))) (let ((.def_99 (not .def_98))) (let ((.def_100 (or A21 .def_63))) (let ((.def_101 (not .def_100))) (let ((.def_102 (or .def_39 .def_101))) (let ((.def_103 (or A1 A7))) (let ((.def_104 (not .def_103))) (let ((.def_105 (and A10 A5))) (let ((.def_106 (and .def_105 .def_104))) (let ((.def_107 (or .def_106 .def_102))) (let ((.def_108 (or .def_107 .def_99))) (let ((.def_109 (not .def_108))) (let ((.def_110 (or .def_109 .def_88))) (let ((.def_111 (or .def_110 .def_62))) (let ((.def_112 (or .def_75 .def_40))) (let ((.def_113 (not .def_112))) (let ((.def_114 (not A17))) (let ((.def_115 (= A22 .def_114))) (let ((.def_116 (not .def_115))) (let ((.def_117 (and .def_116 .def_113))) (let ((.def_118 (and .def_38 A24))) (let ((.def_119 (not .def_118))) (let ((.def_120 (= A22 .def_4))) (let ((.def_121 (or .def_120 .def_119))) (let ((.def_122 (not .def_121))) (let ((.def_123 (or .def_122 .def_117))) (let ((.def_124 (= A16 A14))) (let ((.def_125 (not .def_124))) (let ((.def_126 (and A5 .def_67))) (let ((.def_127 (not .def_126))) (let ((.def_128 (or .def_127 .def_125))) (let ((.def_129 (or A10 .def_25))) (let ((.def_130 (not .def_129))) (let ((.def_131 (not A18))) (let ((.def_132 (and .def_131 A5))) (let ((.def_133 (not .def_132))) (let ((.def_134 (or .def_133 .def_130))) (let ((.def_135 (not .def_134))) (let ((.def_136 (or .def_135 .def_128))) (let ((.def_137 (and .def_136 .def_123))) (let ((.def_138 (and .def_82 A0))) (let ((.def_139 (not .def_138))) (let ((.def_140 (and .def_82 A1))) (let ((.def_141 (not .def_140))) (let ((.def_142 (and .def_141 .def_139))) (let ((.def_143 (not .def_142))) (let ((.def_144 (and .def_38 A14))) (let ((.def_145 (not .def_144))) (let ((.def_146 (and A11 A12))) (let ((.def_147 (not .def_146))) (let ((.def_148 (= .def_147 .def_145))) (let ((.def_149 (and .def_148 .def_143))) (let ((.def_150 (not A19))) (let ((.def_151 (and .def_150 A24))) (let ((.def_152 (not .def_151))) (let ((.def_153 (and .def_114 .def_35))) (let ((.def_154 (not .def_153))) (let ((.def_155 (and .def_154 .def_152))) (let ((.def_156 (not .def_155))) (let ((.def_157 (and .def_55 .def_3))) (let ((.def_158 (not .def_157))) (let ((.def_159 (or .def_67 .def_150))) (let ((.def_160 (and .def_159 .def_158))) (let ((.def_161 (= .def_160 .def_156))) (let ((.def_162 (= .def_161 .def_149))) (let ((.def_163 (or .def_162 .def_137))) (let ((.def_164 (not .def_163))) (let ((.def_165 (= A5 .def_3))) (let ((.def_166 (and .def_63 A17))) (let ((.def_167 (= .def_166 .def_165))) (let ((.def_168 (and .def_67 .def_11))) (let ((.def_169 (and .def_3 A1))) (let ((.def_170 (or .def_169 .def_168))) (let ((.def_171 (not .def_170))) (let ((.def_172 (or .def_171 .def_167))) (let ((.def_173 (not .def_172))) (let ((.def_174 (or A10 .def_53))) (let ((.def_175 (or .def_0 A24))) (let ((.def_176 (not .def_175))) (let ((.def_177 (or .def_176 .def_174))) (let ((.def_178 (not .def_177))) (let ((.def_179 (or .def_35 .def_46))) (let ((.def_180 (not .def_179))) (let ((.def_181 (and A3 A6))) (let ((.def_182 (or .def_181 .def_180))) (let ((.def_183 (not .def_182))) (let ((.def_184 (or .def_183 .def_178))) (let ((.def_185 (and .def_184 .def_173))) (let ((.def_186 (not .def_185))) (let ((.def_187 (= .def_11 .def_0))) (let ((.def_188 (and A3 A18))) (let ((.def_189 (not .def_188))) (let ((.def_190 (and .def_189 .def_187))) (let ((.def_191 (or .def_35 .def_0))) (let ((.def_192 (= .def_63 .def_40))) (let ((.def_193 (not .def_192))) (let ((.def_194 (and .def_193 .def_191))) (let ((.def_195 (not .def_194))) (let ((.def_196 (or .def_195 .def_190))) (let ((.def_197 (= A17 .def_63))) (let ((.def_198 (not .def_197))) (let ((.def_199 (or .def_48 A22))) (let ((.def_200 (not .def_199))) (let ((.def_201 (and .def_200 .def_198))) (let ((.def_202 (not .def_201))) (let ((.def_203 (or .def_4 .def_11))) (let ((.def_204 (not .def_203))) (let ((.def_205 (and A7 A1))) (let ((.def_206 (and .def_205 .def_204))) (let ((.def_207 (not .def_206))) (let ((.def_208 (and .def_207 .def_202))) (let ((.def_209 (not .def_208))) (let ((.def_210 (and .def_209 .def_196))) (let ((.def_211 (or .def_210 .def_186))) (let ((.def_212 (or .def_211 .def_164))) (let ((.def_213 (and .def_212 .def_111))) (let ((.def_214 (not .def_213))) .def_214))))))))))))))))))))))))))))))))))))))))))))))))))))))))))))))))))))))))))))))))))))))))))))))))))))))))))))))))))))))))))))))))))))))))))))))))))))))))))))))))))))))))))))))))))))))))))))))))))))))))))))))))))))))))
(check-sat)
